5 5
3 8 1 82 4 59 0 30 2 67
1 55 2 34 4 43 3 28 0 37
0 89 3 30 2 71 4 62 1 29
2 2 1 90 0 57 4 57 3 42
2 49 4 57 0 71 3 18 1 70
-1
0 2 5
0 3 5
0 2 5
0 1 4 5
0 2 3 4 5
-2
109 327
171 292
135 406
2 295 309
127 209 225 303

383 4
10 22 9 17 3
5 1 16 24 14
15 20 6 12 4
0 11 8 23 19
21 7 2 13 18
